; DUP1 DUP3 ADD SWAP2 POP POP => ADD
(set-option :produce-proofs true)
; 
(set-info :status unknown)
(declare-fun storage_t ((_ BitVec 256) (_ BitVec 256) Int (_ BitVec 256)) (_ BitVec 256))
(declare-fun storage_s ((_ BitVec 256) (_ BitVec 256) Int (_ BitVec 256)) (_ BitVec 256))
(declare-fun exc_halt_t (Int) Bool)
(declare-fun exc_halt_s (Int) Bool)
(declare-fun stack_t ((_ BitVec 256) (_ BitVec 256) Int (_ BitVec 6)) (_ BitVec 256))
(declare-fun stack_s ((_ BitVec 256) (_ BitVec 256) Int (_ BitVec 6)) (_ BitVec 256))
(declare-fun sc_t (Int) (_ BitVec 6))
(declare-fun sc_s (Int) (_ BitVec 6))
(declare-fun used_gas_t ((_ BitVec 256) (_ BitVec 256) Int) Int)
(declare-fun used_gas_s ((_ BitVec 256) (_ BitVec 256) Int) Int)
(assert
 (exists ((x_0 (_ BitVec 256)) (x_1 (_ BitVec 256)) )(let (($x4824 (forall ((w (_ BitVec 256)) )(let ((?x1194 (storage_t x_0 x_1 1 w)))
 (let ((?x2568 (storage_s x_0 x_1 6 w)))
 (= ?x2568 ?x1194))))
 ))
 (let (($x3508 (exc_halt_t 1)))
 (let (($x772 (exc_halt_s 6)))
 (let (($x8405 (= $x772 $x3508)))
 (let (($x7755 (forall ((n (_ BitVec 6)) )(let ((?x10385 (stack_t x_0 x_1 1 n)))
 (let ((?x10317 (stack_s x_0 x_1 6 n)))
 (let (($x7312 (= ?x10317 ?x10385)))
 (let ((?x8347 (sc_t 1)))
 (let (($x142 (bvsle ?x8347 n)))
 (or $x142 $x7312)))))))
 ))
 (let ((?x8347 (sc_t 1)))
 (let ((?x926 (sc_s 6)))
 (let (($x1349 (= ?x926 ?x8347)))
 (let ((?x8373 (used_gas_t x_0 x_1 0)))
 (let ((?x9397 (used_gas_s x_0 x_1 0)))
 (let (($x974 (= ?x9397 ?x8373)))
 (let (($x5838 (forall ((w (_ BitVec 256)) )(let ((?x11475 (storage_t x_0 x_1 0 w)))
 (let ((?x10607 (storage_s x_0 x_1 0 w)))
 (= ?x10607 ?x11475))))
 ))
 (let (($x56 (exc_halt_t 0)))
 (let (($x57 (exc_halt_s 0)))
 (let (($x58 (= $x57 $x56)))
 (let (($x5475 (forall ((n (_ BitVec 6)) )(let ((?x8129 (stack_t x_0 x_1 0 n)))
 (let ((?x7406 (stack_s x_0 x_1 0 n)))
 (let (($x6423 (= ?x7406 ?x8129)))
 (let ((?x63 (sc_t 0)))
 (let (($x5499 (bvsle ?x63 n)))
 (or $x5499 $x6423)))))))
 ))
 (let ((?x63 (sc_t 0)))
 (let ((?x72 (sc_s 0)))
 (let (($x73 (= ?x72 ?x63)))
 (let (($x3760 (= $x3508 (or $x56 (not (bvsle (_ bv0 6) (bvadd (_ bv62 6) ?x63)))))))
 (let (($x8556 (forall ((w (_ BitVec 256)) )(let ((?x11475 (storage_t x_0 x_1 0 w)))
 (let ((?x1194 (storage_t x_0 x_1 1 w)))
 (= ?x1194 ?x11475))))
 ))
 (let (($x1111 (forall ((n (_ BitVec 6)) )(let ((?x8129 (stack_t x_0 x_1 0 n)))
 (let ((?x10385 (stack_t x_0 x_1 1 n)))
 (let (($x4238 (= ?x10385 ?x8129)))
 (let ((?x63 (sc_t 0)))
 (let ((?x8168 (bvadd (_ bv62 6) ?x63)))
 (let (($x3542 (bvsle ?x8168 n)))
 (or $x3542 $x4238))))))))
 ))
 (let ((?x363 (used_gas_t x_0 x_1 1)))
 (let (($x9748 (= ?x363 (+ 3 ?x8373))))
 (let ((?x6761 (bvadd (_ bv63 6) ?x63)))
 (let ((?x2467 (stack_t x_0 x_1 0 ?x6761)))
 (let ((?x1086 (bvadd (_ bv63 6) ?x8347)))
 (let ((?x8423 (stack_t x_0 x_1 1 ?x1086)))
 (let (($x4222 (= $x772 (or (exc_halt_s 5) (not (bvsle (_ bv0 6) (bvadd (_ bv63 6) (sc_s 5))))))))
 (let (($x7535 (forall ((w (_ BitVec 256)) )(let ((?x2177 (storage_s x_0 x_1 5 w)))
 (let ((?x2568 (storage_s x_0 x_1 6 w)))
 (= ?x2568 ?x2177))))
 ))
 (let (($x7031 (forall ((n (_ BitVec 6)) )(or (bvsle (bvadd (_ bv63 6) (sc_s 5)) n) (= (stack_s x_0 x_1 6 n) (stack_s x_0 x_1 5 n))))
 ))
 (let (($x240 (= (used_gas_s x_0 x_1 6) (+ 2 (used_gas_s x_0 x_1 5)))))
 (let (($x11317 (exc_halt_s 5)))
 (let (($x10101 (= $x11317 (or (exc_halt_s 4) (not (bvsle (_ bv0 6) (bvadd (_ bv63 6) (sc_s 4))))))))
 (let (($x11063 (forall ((w (_ BitVec 256)) )(let ((?x10160 (storage_s x_0 x_1 4 w)))
 (let ((?x2177 (storage_s x_0 x_1 5 w)))
 (= ?x2177 ?x10160))))
 ))
 (let (($x5435 (forall ((n (_ BitVec 6)) )(let ((?x2496 (stack_s x_0 x_1 4 n)))
 (let ((?x7826 (stack_s x_0 x_1 5 n)))
 (let (($x3333 (= ?x7826 ?x2496)))
 (let ((?x4305 (sc_s 4)))
 (let ((?x6745 (bvadd (_ bv63 6) ?x4305)))
 (let (($x2299 (bvsle ?x6745 n)))
 (or $x2299 $x3333))))))))
 ))
 (let ((?x4305 (sc_s 4)))
 (let ((?x6745 (bvadd (_ bv63 6) ?x4305)))
 (let ((?x4319 (sc_s 5)))
 (let (($x11286 (= ?x4319 ?x6745)))
 (let ((?x690 (used_gas_s x_0 x_1 5)))
 (let (($x7172 (exc_halt_s 4)))
 (let (($x5446 (= $x7172 (or (exc_halt_s 3) (not (bvsle (_ bv0 6) (bvadd (_ bv61 6) (sc_s 3))))))))
 (let (($x2293 (forall ((w (_ BitVec 256)) )(let ((?x4260 (storage_s x_0 x_1 3 w)))
 (let ((?x10160 (storage_s x_0 x_1 4 w)))
 (= ?x10160 ?x4260))))
 ))
 (let (($x6216 (forall ((n (_ BitVec 6)) )(let ((?x9491 (stack_s x_0 x_1 3 n)))
 (let ((?x2496 (stack_s x_0 x_1 4 n)))
 (let (($x7896 (= ?x2496 ?x9491)))
 (let ((?x275 (sc_s 3)))
 (let ((?x9862 (bvadd (_ bv61 6) ?x275)))
 (let (($x6845 (bvsle ?x9862 n)))
 (or $x6845 $x7896))))))))
 ))
 (let ((?x275 (sc_s 3)))
 (let (($x10151 (= ?x4305 ?x275)))
 (let ((?x3213 (used_gas_s x_0 x_1 4)))
 (let (($x5992 (= ?x3213 (+ 3 (used_gas_s x_0 x_1 3)))))
 (let ((?x1922 (bvadd (_ bv62 6) ?x275)))
 (let ((?x7964 (stack_s x_0 x_1 3 ?x1922)))
 (let ((?x3389 (bvadd (_ bv62 6) ?x4305)))
 (let ((?x345 (stack_s x_0 x_1 4 ?x3389)))
 (let ((?x891 (bvadd (_ bv63 6) ?x275)))
 (let ((?x6136 (stack_s x_0 x_1 3 ?x891)))
 (let ((?x3113 (stack_s x_0 x_1 4 ?x6745)))
 (let (($x292 (exc_halt_s 3)))
 (let (($x7282 (= $x292 (or (exc_halt_s 2) (not (bvsle (_ bv0 6) (bvadd (_ bv62 6) (sc_s 2))))))))
 (let (($x9443 (forall ((w (_ BitVec 256)) )(let ((?x4458 (storage_s x_0 x_1 2 w)))
 (let ((?x4260 (storage_s x_0 x_1 3 w)))
 (= ?x4260 ?x4458))))
 ))
 (let (($x11581 (forall ((n (_ BitVec 6)) )(let ((?x218 (sc_s 2)))
 (let ((?x6986 (bvadd (_ bv62 6) ?x218)))
 (let (($x9254 (bvsle ?x6986 n)))
 (or $x9254 (= (stack_s x_0 x_1 3 n) (stack_s x_0 x_1 2 n)))))))
 ))
 (let ((?x218 (sc_s 2)))
 (let ((?x8766 (bvadd (_ bv63 6) ?x218)))
 (let (($x6914 (= ?x275 ?x8766)))
 (let ((?x2226 (used_gas_s x_0 x_1 3)))
 (let (($x2275 (= ?x2226 (+ 3 (used_gas_s x_0 x_1 2)))))
 (let ((?x10366 (stack_s x_0 x_1 2 ?x8766)))
 (let (($x2828 (= ?x6136 (bvadd ?x10366 (stack_s x_0 x_1 2 (bvadd (_ bv62 6) ?x218))))))
 (let (($x419 (not (= ((_ extract 6 6) (bvadd (_ bv1 7) (concat (_ bv0 1) (sc_s 1)))) (_ bv0 1)))))
 (let (($x342 (not (bvsle (_ bv0 6) (bvadd (_ bv61 6) (sc_s 1))))))
 (let (($x189 (exc_halt_s 1)))
 (let (($x247 (exc_halt_s 2)))
 (let (($x2485 (forall ((w (_ BitVec 256)) )(let ((?x8273 (storage_s x_0 x_1 1 w)))
 (let ((?x4458 (storage_s x_0 x_1 2 w)))
 (= ?x4458 ?x8273))))
 ))
 (let (($x9711 (forall ((n (_ BitVec 6)) )(let ((?x11744 (stack_s x_0 x_1 1 n)))
 (let ((?x707 (stack_s x_0 x_1 2 n)))
 (let (($x10002 (= ?x707 ?x11744)))
 (let ((?x154 (sc_s 1)))
 (let ((?x3120 (bvadd (_ bv61 6) ?x154)))
 (let (($x6456 (bvsle ?x3120 n)))
 (or $x6456 $x10002))))))))
 ))
 (let (($x2550 (= ?x218 (bvadd (_ bv1 6) (sc_s 1)))))
 (let ((?x8926 (used_gas_s x_0 x_1 2)))
 (let (($x6744 (= ?x8926 (+ 3 (used_gas_s x_0 x_1 1)))))
 (let ((?x154 (sc_s 1)))
 (let ((?x7271 (bvadd (_ bv63 6) ?x154)))
 (let ((?x11836 (stack_s x_0 x_1 1 ?x7271)))
 (let (($x6256 (= (stack_s x_0 x_1 2 (bvadd (_ bv62 6) ?x154)) (stack_s x_0 x_1 1 (bvadd (_ bv62 6) ?x154)))))
 (let ((?x3120 (bvadd (_ bv61 6) ?x154)))
 (let ((?x8902 (stack_s x_0 x_1 1 ?x3120)))
 (let (($x2150 (not (= ((_ extract 6 6) (bvadd (_ bv1 7) (concat (_ bv0 1) ?x72))) (_ bv0 1)))))
 (let (($x7889 (= $x189 (or $x57 $x2150 (not (bvsle (_ bv0 6) (bvadd (_ bv63 6) ?x72)))))))
 (let (($x4500 (forall ((w (_ BitVec 256)) )(let ((?x10607 (storage_s x_0 x_1 0 w)))
 (let ((?x8273 (storage_s x_0 x_1 1 w)))
 (= ?x8273 ?x10607))))
 ))
 (let (($x611 (forall ((n (_ BitVec 6)) )(let ((?x72 (sc_s 0)))
 (let ((?x4397 (bvadd (_ bv63 6) ?x72)))
 (let (($x9755 (bvsle ?x4397 n)))
 (let ((?x7406 (stack_s x_0 x_1 0 n)))
 (let ((?x11744 (stack_s x_0 x_1 1 n)))
 (let (($x8924 (= ?x11744 ?x7406)))
 (or $x8924 $x9755))))))))
 ))
 (let (($x6368 (= ?x154 (bvadd (_ bv1 6) ?x72))))
 (let ((?x11441 (used_gas_s x_0 x_1 1)))
 (let (($x373 (= ?x11441 (+ 3 ?x9397))))
 (let ((?x4397 (bvadd (_ bv63 6) ?x72)))
 (let ((?x549 (stack_s x_0 x_1 0 ?x4397)))
 (let (($x6720 (= (stack_s x_0 x_1 1 ?x4397) ?x549)))
 (let (($x1748 (forall ((w (_ BitVec 256)) )(let ((?x10607 (storage_s x_0 x_1 0 w)))
 (= ?x10607 (_ bv0 256))))
 ))
 (let (($x2861 (= ?x9397 0)))
 (let (($x11443 (not $x57)))
 (let (($x7132 (= (stack_s x_0 x_1 0 (_ bv1 6)) x_1)))
 (let (($x10388 (= (stack_s x_0 x_1 0 (_ bv0 6)) x_0)))
 (let (($x11128 (= ?x72 (_ bv2 6))))
 (and $x11128 $x10388 $x7132 $x11443 $x2861 $x1748 (= ?x11836 ?x549) $x6720 $x373 $x6368 $x611 $x4500 $x7889 (= ?x10366 ?x8902) (= (stack_s x_0 x_1 2 ?x3120) ?x8902) $x6256 (= (stack_s x_0 x_1 2 ?x7271) ?x11836) $x6744 $x2550 $x9711 $x2485 (= $x247 (or $x189 $x342 $x419)) $x2828 $x2275 $x6914 $x11581 $x9443 $x7282 (= ?x3113 (stack_s x_0 x_1 3 (bvadd (_ bv61 6) ?x275))) (= (stack_s x_0 x_1 4 (bvadd (_ bv61 6) ?x4305)) ?x6136) (= ?x345 ?x7964) $x5992 $x10151 $x6216 $x2293 $x5446 (= ?x690 (+ 2 ?x3213)) $x11286 $x5435 $x11063 $x10101 $x240 (= ?x926 (bvadd (_ bv63 6) ?x4319)) $x7031 $x7535 $x4222 (= ?x8423 (bvadd ?x2467 (stack_t x_0 x_1 0 (bvadd (_ bv62 6) ?x63)))) $x9748 (= ?x8347 ?x6761) $x1111 $x8556 $x3760 $x73 $x5475 $x58 $x5838 $x974 (not (and $x1349 $x7755 $x8405 $x4824))))))))))))))))))))))))))))))))))))))))))))))))))))))))))))))))))))))))))))))))))))))))))))))))))))))
 )
(check-sat)
(get-proof)
